single

cell
5.468 5.468 5.468 90 90 90

frac
U 0 0 0
U 1/2 1/2 0
U 1/2 0 1/2
U 0 1/2 1/2

O 1/4 1/4 1/4
O 1/4 3/4 1/4
O 3/4 3/4 1/4
O 3/4 1/4 1/4

O 1/4 1/4 3/4
O 1/4 3/4 3/4
O 3/4 3/4 3/4
O 3/4 1/4 3/4

species
U  {U_charge}
O  {O_charge}

library potentials.lib
